GLPSOL: GLPK LP/MIP Solver, v4.55
Parameter(s) specified in the command line:
 -m tmp.mod
Reading model section from tmp.mod...
Reading data section from tmp.mod...
1677 lines were read
Generating obj...
Generating kirhoff...
Generating init_charge...
Generating batt_size...
Model has been successfully generated
GLPK Simplex Optimizer, v4.55
2396 rows, 2178 columns, 4294 non-zeros
Preprocessing...
1149 rows, 2107 columns, 4197 non-zeros
Scaling...
 A: min|aij| =  1.000e+00  max|aij| =  1.000e+00  ratio =  1.000e+00
Problem data seem to be well scaled
Constructing initial basis...
Size of triangular part is 826
      0: obj =   0.000000000e+00  infeas =  1.029e+03 (323)
*   268: obj =   2.600000000e+01  infeas =  0.000e+00 (242)
*   281: obj =   1.700000000e+01  infeas =  0.000e+00 (241)
OPTIMAL LP SOLUTION FOUND
Time used:   0.0 secs
Memory used: 5.0 Mb (5232204 bytes)
#OUTPUT:
17
-63 -3 -10 -8 -10 0 -10 -3 0 -1 0 -4 0 0 0 -3 0 0 -62 -18 4 0 -3 0 64 0 0 -7 0 0 10 0 9 -56 -48 0 0 1 0 0 0 0 5 -7 0 0 0 -1 3 0 0 4 0 2 1 0 0 0 0 0 0 0 0 -4 0 0 4 0 0 3 0 5 5 0 5 0 0 0 0 0 0 0 0 1 0 0 0 0 0 -1 0 0 0 0 0 0 0 -3 1 0 -1 0 0 0 0 0 0 0 0 0 0 0 0 0 0 0 0 0 0 0 0 0 0 0 0 0 0 0 0 0 -1 0 -3 0 -10 1 8 -3 -3 -2 -2 4 0 52 -48 -6 0 -6 1 -6 0 0 0 1 -8 8 0 3 -1 1 0 0 0 0 0 0 0 0 0 1 3 0 0 0 0 0 0 0 0 0 0 0 0 0 0 0 0 0 0 0 0 0 0 0 0 0 0 0 0 0 0 0 0 0 0 0 0 0 0 0 0 0 0 0 0 0 0 0 0 0 0 0 0 0 0 0 0 0 0 0 0 0 0 0 0 0 0 0 0 0 0 0 0 0 0 0 0 0 0 0 0 0 0 0 0 0 0 0 0 0 0 0 0 0 0 0 0 0 0 0 
-66 -3 4 -8 -3 0 -3 -3 0 1 0 4 0 0 0 0 0 0 -12 -3 0 0 -1 0 -3 0 5 0 0 0 0 0 0 -5 5 0 0 0 0 0 0 0 0 0 0 0 -9 0 1 0 -10 0 0 0 0 -5 7 0 0 0 0 0 0 4 0 0 7 0 0 0 0 0 0 5 0 0 0 0 0 0 0 0 0 0 1 0 0 0 0 -1 0 0 0 0 0 0 5 0 0 0 0 0 0 0 0 0 -10 0 0 0 0 0 0 0 0 0 0 0 0 0 0 0 0 0 0 0 0 0 0 0 0 0 0 0 -1 0 1 -3 -1 0 0 0 0 -4 5 -7 0 -5 0 0 -1 5 -5 1 -8 8 -5 0 0 0 0 0 0 0 0 0 0 0 0 0 0 0 0 0 0 0 0 0 0 0 0 0 0 0 0 0 0 0 0 0 0 0 0 0 0 0 0 0 0 0 0 0 0 0 0 0 0 0 0 0 0 0 0 0 0 0 0 0 0 0 0 0 0 0 0 0 0 0 0 0 0 0 0 0 0 0 0 0 0 0 0 0 0 0 0 0 0 0 0 0 0 0 0 0 0 0 0 0 0 0 0 0 0 0 0 0 0 0 0 0 
-13 -1 -5 -16 -31 -13 -28 -1 0 -1 0 -4 0 0 -10 -3 0 0 -62 0 0 0 0 0 0 0 -5 -25 -54 0 0 0 0 -48 -3 -64 0 -1 0 0 0 0 0 29 0 0 0 -3 0 -3 0 0 0 0 0 0 -1 4 12 0 3 0 0 -4 -48 0 4 0 0 0 0 0 0 0 0 0 0 0 0 0 0 0 0 -1 -1 -7 0 0 11 0 12 0 10 0 0 0 0 -3 -3 0 -13 0 4 0 0 0 0 -59 -3 0 0 0 0 0 0 0 0 -7 0 0 0 0 0 0 0 0 0 6 0 0 0 0 0 -10 0 0 0 -3 0 0 0 9 0 0 -3 -14 0 0 0 0 1 -5 0 0 -12 0 0 3 3 -1 -4 0 3 -14 21 0 0 0 -6 0 0 10 0 0 0 0 0 0 0 0 0 0 0 0 0 0 0 0 0 0 0 0 0 0 0 0 0 0 0 0 0 0 0 0 0 0 0 0 0 0 0 0 0 0 0 0 0 0 0 0 0 0 0 0 0 0 0 0 0 0 0 0 0 0 0 0 0 0 0 0 0 0 0 0 0 0 0 0 0 0 0 0 0 0 0 0 0 0 0 0 0 0 0 0 0 0 0 0 0 0 
-63 -3 -54 -32 -2 -63 0 -3 0 -1 0 -4 0 0 0 0 0 0 -15 -3 0 0 -3 0 -3 0 -54 0 0 0 0 0 0 -8 -4 0 0 0 0 0 0 0 0 0 0 0 0 0 3 2 0 0 0 0 0 0 7 0 0 -65 2 0 0 -4 -8 0 7 0 0 -15 0 0 0 0 0 0 0 0 0 0 0 0 -30 0 0 0 0 0 -8 0 0 0 0 0 0 0 0 0 0 0 0 0 0 0 0 0 0 0 -2 0 0 0 0 0 0 0 0 0 0 0 0 0 0 0 0 0 0 0 0 0 -1 0 -15 0 0 0 3 0 -3 0 0 0 0 8 -4 -7 0 0 0 0 0 5 3 0 -8 8 0 0 0 0 -24 0 2 0 0 0 0 0 0 1 15 0 0 0 0 0 0 0 0 0 0 0 0 0 0 0 0 0 0 0 0 0 0 0 0 0 0 0 0 0 0 0 0 0 0 0 0 0 0 0 0 0 0 0 0 0 0 0 0 0 0 0 0 0 0 0 0 0 0 0 0 0 0 0 0 0 0 0 0 0 0 0 0 0 0 0 0 0 0 0 0 0 0 0 0 0 0 0 0 0 0 0 0 0 0 0 0 0 0 0 
#OUTPUT END
Model has been successfully processed
